************************************************************************************
#*                   Generated by cif2cell 2.1.0 2023-11-27 16:49                   *
#*  T. Bjorkman, Comp. Phys. Commun. 182, 1183-1186 (2011). Please cite generously. *
#*                                                                                  *
#*                              Data obtained from COD                              *
#*                                    None   ()                                     *
#*             Failed to get author information, No journal information             *
#************************************************************************************
&CONTROL
 calculation='vc-relax',
 outdir='.',
 prefix='k5al3h14',
 pseudo_dir='/home/garima.iitr/.cache/.es/compmat/kalh4',
 verbosity='low',
 tprnfor=.true.,
 tstress=.true.,
/
&SYSTEM
  ibrav = 0,
  A =    7.21008,
  nat = 44,
  ntyp = 3,
  ecutwfc=75,
  ecutrho=375,
  input_dft='pbe',
  occupations='smearing',
  smearing='mv',
  degauss=0.005d0,

/

&ELECTRONS
 conv_thr=1d-08,
 mixing_beta=0.7d0,
/

&IONS
 ion_dynamics='bfgs',
/

&CELL
 cell_dynamics='bfgs',
 press=0.d0,
 press_conv_thr=0.5d0,
/


CELL_PARAMETERS {alat}
  1.000000000000000   0.000000000000000   0.000000000000000
  0.000000000000000   1.000000000000000   0.000000000000000
  0.000000000000000   0.000000000000000   1.610637938741604
ATOMIC_SPECIES
 Al   26.98100  Al.pbe-n-kjpaw_psl.1.0.0.UPF
   H    1.00750   H.pbe-rrkjus_psl.1.0.0.UPF
   K   39.09830   K.pbe-spn-kjpaw_psl.1.0.0.UPF

ATOMIC_POSITIONS {crystal}
K             0.0000000000        0.0000000000        0.5000000000
K             0.5000000000        0.5000000000        0.0000000000
K             0.2917230712        0.7917230712        0.2500000000
K             0.2082769288        0.2917230712        0.2500000000
K             0.7082769288        0.2082769288        0.2500000000
K             0.2082769288        0.2917230712        0.7500000000
K             0.7082769288        0.2082769288        0.7500000000
K             0.7917230712        0.7082769288        0.2500000000
K             0.7917230712        0.7082769288        0.7500000000
K             0.2917230712        0.7917230712        0.7500000000
Al            0.0000000000        0.0000000000       -0.0000000000
Al            0.5000000000        0.5000000000        0.5000000000
Al            0.0000000000        0.5000000000       -0.0000000000
Al            0.5000000000        0.0000000000        0.5000000000
Al            0.0000000000        0.5000000000        0.5000000000
Al            0.5000000000        0.0000000000        0.0000000000
H             0.5433039353        0.8348610650        0.1051107069
H             0.9566960647        0.3348610650        0.3948892931
H             0.6651389350        0.9566960647        0.3948892931
H             0.9566960647        0.3348610650        0.6051107069
H             0.6651389350        0.9566960647        0.6051107069
H             0.4566960647        0.1651389350        0.1051107069
H             0.8348610650        0.4566960647        0.1051107069
H             0.4566960647        0.1651389350        0.8948892931
H             0.8348610650        0.4566960647        0.8948892931
H             0.1651389350        0.5433039353        0.1051107069
H             0.5433039353        0.8348610650        0.8948892931
H             0.1651389350        0.5433039353        0.8948892931
H             0.0433039353        0.6651389350        0.3948892931
H             0.3348610650        0.0433039353        0.3948892931
H             0.0433039353        0.6651389350        0.6051107069
H             0.3348610650        0.0433039353        0.6051107069
H             0.0000000000        0.0000000000        0.1521826764
H             0.5000000000        0.5000000000        0.3478173236
H             0.5000000000        0.5000000000        0.6521826764
H             0.0000000000        0.0000000000        0.8478173236
H             0.7542896291        0.0580343515        0.0000000000
H             0.7457103709        0.5580343515        0.5000000000
H             0.4419656485        0.7457103709        0.5000000000
H             0.2457103709        0.9419656485        0.0000000000
H             0.0580343515        0.2457103709       -0.0000000000
H             0.9419656485        0.7542896291       -0.0000000000
H             0.2542896291        0.4419656485        0.5000000000
H             0.5580343515        0.2542896291        0.5000000000

K_POINTS {automatic}
 6 6 6 0 0 0

