#*                   Generated by cif2cell 2.0.0 2023-10-17 20:54                   *
#*  T. Bjorkman, Comp. Phys. Commun. 182, 1183-1186 (2011). Please cite generously. *
#*                                                                                  *
#*                              Data obtained from COD                              *
#*                                    None   ()                                     *
#*             Failed to get author information, No journal information             *
#************************************************************************************
&CONTROL
 calculation='vc-relax',
 outdir='.',
 prefix='naalh4',
 pseudo_dir  = "/home/garima.iitr/.cache/.es/compmat/naalh4"
    outdir = "temp"
    disk_io= "none"

 verbosity='low',
 tprnfor=.true.,
 tstress=.true.,
/
&SYSTEM
  ibrav = 0
  A =    4.94110
  nat = 12
  ntyp = 3
  ecutwfc=75,
  ecutrho=375,
  input_dft='pbe',
  occupations='smearing',
  smearing='mv',
  degauss=0.005d0,
/
&ELECTRONS
 conv_thr=1d-08,
 mixing_beta=0.7d0,
/

&IONS
 ion_dynamics='bfgs',
/
&CELL
 cell_dynamics='bfgs',
 press=0.d0,
 press_conv_thr=0.5d0,
/

CELL_PARAMETERS {alat}
  1.000000000000000   0.000000000000000   0.000000000000000
  0.000000000000000   1.000000000000000   0.000000000000000
  0.500000000000000   0.500000000000000   1.112056369378882
ATOMIC_SPECIES
  Al   26.98100  Al.pbe-n-kjpaw_psl.1.0.0.UPF
   H    1.00750   H.pbe-rrkjus_psl.1.0.0.UPF
  Na   22.98900  na_pbe_v1.5.uspp.F.UPF
ATOMIC_POSITIONS {crystal}

Al            0.8750000000        0.1250000000        0.2500000000
Al            0.1250000000        0.8750000000        0.7500000000
Na            0.3750000000        0.6250000000        0.2500000000
Na            0.6250000000        0.3750000000        0.7500000000
H             0.0634757715        0.7189029040        0.5869441028
H             0.7189029040        0.3495801257        0.0869441028
H             0.8058470067        0.9365242285        0.9130558972
H             0.6504198743        0.8058470067        0.4130558972
H             0.3495801257        0.1941529933        0.5869441028
H             0.9365242285        0.2810970960        0.4130558972
H             0.2810970960        0.6504198743        0.9130558972
H             0.1941529933        0.0634757715        0.0869441028

K_POINTS {automatic}
 6 6 3 0 0 0
                                                                                               

