#************************************************************************************
#*                   Generated by cif2cell 2.0.0 2023-11-28 19:24                   *
#*  T. Bjorkman, Comp. Phys. Commun. 182, 1183-1186 (2011). Please cite generously. *
#*                                                                                  *
#*                              Data obtained from COD                              *
#*                                    GaH3   ()                                     *
#*             Failed to get author information, No journal information             *
#************************************************************************************
&CONTROL
 calculation='vc-relax',
 outdir='.',
 prefix='gah3',
 pseudo_dir='/home/garima.iitr/.cache/.es/compmat/gah3',
 verbosity='low',
 tprnfor=.true.,
 tstress=.true.,
/
&SYSTEM
  ibrav = 0,
  A =    2.86751,
  nat = 4,
  ntyp = 2,
  ecutwfc=75,
  ecutrho=375,
  input_dft='pbe',
  occupations='smearing',
  smearing='mv',
  degauss=0.005d0,
/
&ELECTRONS
 conv_thr=1d-08,
 mixing_beta=0.7d0,
/
&IONS
 ion_dynamics='bfgs',
/
&CELL
 cell_dynamics='bfgs',
 press=0.d0,
 press_conv_thr=0.5d0,
/


CELL_PARAMETERS {alat}
  1.000000000000000   0.000000000000000   0.000000000000000 
  0.000000000000000   1.000000000000000   0.000000000000000 
  0.500000000000000   0.500000000000000   1.129205658157298 
ATOMIC_SPECIES
   H    1.00750   H.pbe-rrkjus_psl.1.0.0.UPF
  Ga   69.72300  Ga.pbe-dn-kjpaw_psl.1.0.0.UPF
ATOMIC_POSITIONS {crystal}
Ga            0.0000000000        0.0000000000        0.0000000000
H             0.7500000000        0.2500000000        0.5000000000
H             0.2500000000        0.7500000000        0.5000000000
H             0.5000000000        0.5000000000        0.0000000000


K_POINTS {automatic}
 6 3 3 0 0 0

