#************************************************************************************
#*                   Generated by cif2cell 2.0.0 2023-11-28 19:24                   *
#*  T. Bjorkman, Comp. Phys. Commun. 182, 1183-1186 (2011). Please cite generously. *
#*                                                                                  *
#*                              Data obtained from COD                              *
#*                                     BH3   ()                                     *
#*             Failed to get author information, No journal information             *
#************************************************************************************
&CONTROL
 calculation='scf',
 outdir='.',
 prefix='BH3_experimental',
 pseudo_dir='../../pseudopotentials',
 verbosity='low',
 tprnfor=.true.,
 tstress=.true.,
/
&SYSTEM
  ibrav = 0,
  A =    4.29060,
  nat = 16,
  ntyp = 2,
  ecutwfc=75,
  ecutrho=375,
  input_dft='pbe',
  occupations='smearing',
  smearing='mv',
  degauss=0.005d0,
/
&ELECTRONS
 conv_thr=1d-08,
 mixing_beta=0.7d0,
/
CELL_PARAMETERS {alat}
  1.000000000000000   0.000000000000000   0.000000000000000 
  0.000000000000000   1.442471705645345   0.000000000000000 
 -0.644893823642674   0.000000000000000   1.291379442279379 
ATOMIC_SPECIES
   B   10.81350   b_pbe_v1.4.uspp.F.UPF
   H    1.00750   H.pbe-rrkjus_psl.1.0.0.UPF
ATOMIC_POSITIONS {crystal}
B   0.142485810000000   0.543809770000000   0.644623710000000 
B   0.857514190000000   0.456190230000000   0.355376290000000 
B   0.857514190000000   0.043809770000000   0.855376290000000 
B   0.142485810000000   0.956190230000000   0.144623710000000 
H   0.087811210000000   0.004755690000000   0.310369710000000 
H   0.912188790000000   0.995244310000000   0.689630290000000 
H   0.912188790000000   0.504755690000000   0.189630290000000 
H   0.087811210000000   0.495244310000000   0.810369710000000 
H   0.141118780000000   0.131386510000000   0.024050330000000 
H   0.858881220000000   0.868613490000000   0.975949670000000 
H   0.858881220000000   0.631386510000000   0.475949670000000 
H   0.141118780000000   0.368613490000000   0.524050330000000 
H   0.386775900000000   0.651178050000000   0.671324630000000 
H   0.613224100000000   0.348821950000000   0.328675370000000 
H   0.613224100000000   0.151178050000000   0.828675370000000 
H   0.386775900000000   0.848821950000000   0.171324630000000 
K_POINTS {automatic}
 6 5 5 0 0 0
