#************************************************************************************
#*                   Generated by cif2cell 2.0.0 2023-11-28 19:25                   *
#*  T. Bjorkman, Comp. Phys. Commun. 182, 1183-1186 (2011). Please cite generously. *
#*                                                                                  *
#*                              Data obtained from COD                              *
#*                                    NaBH4   ()                                    *
#*             Failed to get author information, No journal information             *
#************************************************************************************
&CONTROL
 calculation='scf',
 outdir='.',
 prefix='NaBH4_experimental',
 pseudo_dir='../../pseudopotentials',
 verbosity='low',
 tprnfor=.true.,
 tstress=.true.,
/
&SYSTEM
  ibrav = 0,
  A =    4.31912,
  nat = 12,
  ntyp = 3,
  ecutwfc=75,
  ecutrho=375,
  input_dft='pbe',
  occupations='smearing',
  smearing='mv',
  degauss=0.005d0,
/
&ELECTRONS
 conv_thr=1d-08,
 mixing_beta=0.7d0,
/
CELL_PARAMETERS {alat}
  1.000000000000000   0.000000000000000   0.000000000000000 
  0.000000000000000   1.000000000000000   0.000000000000000 
  0.000000000000000   0.000000000000000   1.332897839318307 
ATOMIC_SPECIES
   H    1.00750   H.pbe-rrkjus_psl.1.0.0.UPF
   B   10.81350   b_pbe_v1.4.uspp.F.UPF
  Na   22.98900  na_pbe_v1.5.uspp.F.UPF
ATOMIC_POSITIONS {crystal}
Na   0.000000000000000   0.000000000000000   0.000000000000000 
Na   0.500000000000000   0.500000000000000   0.500000000000000 
 B   0.000000000000000   0.000000000000000   0.500000000000000 
 B   0.500000000000000   0.500000000000000   0.000000000000000 
 H   0.018998080000000   0.769510040000000   0.378402870000000 
 H   0.481001920000000   0.269510040000000   0.121597130000000 
 H   0.730489960000000   0.481001920000000   0.878402870000000 
 H   0.769510040000000   0.981001920000000   0.621597130000000 
 H   0.981001920000000   0.230489960000000   0.378402870000000 
 H   0.230489960000000   0.018998080000000   0.621597130000000 
 H   0.518998080000000   0.730489960000000   0.121597130000000 
 H   0.269510040000000   0.518998080000000   0.878402870000000 
K_POINTS {automatic}
 6 5 5 0 0 0
