#************************************************************************************
#*                   Generated by cif2cell 2.0.0 2023-11-28 19:26                   *
#*  T. Bjorkman, Comp. Phys. Commun. 182, 1183-1186 (2011). Please cite generously. *
#*                                                                                  *
#*                              Data obtained from COD                              *
#*                                   NaGaH4   ()                                    *
#*             Failed to get author information, No journal information             *
#************************************************************************************
&CONTROL
 calculation='scf',
 outdir='.',
 prefix='NaGaH4_experimental',
 pseudo_dir='../../pseudopotentials',
 verbosity='low',
 tprnfor=.true.,
 tstress=.true.,
/
&SYSTEM
  ibrav = 0,
  A =    6.96691,
  nat = 12,
  ntyp = 3,
  ecutwfc=75,
  ecutrho=375,
  input_dft='pbe',
  occupations='smearing',
  smearing='mv',
  degauss=0.005d0,
/
&ELECTRONS
 conv_thr=1d-08,
 mixing_beta=0.7d0,
/
CELL_PARAMETERS {alat}
  0.500000000000000  -0.451541424557898   0.000000000000000 
  0.500000000000000   0.451541424557898   0.000000000000000 
  0.000000000000000   0.000000000000000   1.011766532129179 
ATOMIC_SPECIES
   H    1.00750   H.pbe-rrkjus_psl.1.0.0.UPF
  Ga   69.72300  Ga.pbe-dn-kjpaw_psl.1.0.0.UPF
  Na   22.98900  na_pbe_v1.5.uspp.F.UPF
ATOMIC_POSITIONS {crystal}
Ga   0.841929070000000   0.158070930000000   0.750000000000000 
Ga   0.158070930000000   0.841929070000000   0.250000000000000 
Na   0.658191410000000   0.341808590000000   0.250000000000000 
Na   0.341808590000000   0.658191410000000   0.750000000000000 
 H   0.690063630000000   0.309936370000000   0.570941300000000 
 H   0.690063630000000   0.309936370000000   0.929058700000000 
 H   0.309936370000000   0.690063630000000   0.070941300000000 
 H   0.309936370000000   0.690063630000000   0.429058700000000 
 H   0.174525680000000   0.192563200000000   0.750000000000000 
 H   0.192563200000000   0.174525680000000   0.250000000000000 
 H   0.825474320000000   0.807436800000000   0.250000000000000 
 H   0.807436800000000   0.825474320000000   0.750000000000000 
K_POINTS {automatic}
 6 6 6 0 0 0
