#************************************************************************************
#*                   Generated by cif2cell 2.0.0 2023-10-17 20:54                   *
#*  T. Bjorkman, Comp. Phys. Commun. 182, 1183-1186 (2011). Please cite generously. *
#*                                                                                  *
#*                              Data obtained from COD                              *
#*                                    None   ()                                     *
#*             Failed to get author information, No journal information             *
#************************************************************************************
&CONTROL
 calculation='scf',
 outdir='.',
 prefix='NaAlH4_6-6-3_75_375',
 pseudo_dir='../pseudopotentials',
 verbosity='low',
 tprnfor=.true.,
 tstress=.true.,
/
&SYSTEM
  ibrav = 0
  A =    4.94110
  nat = 12
  ntyp = 3
  ecutwfc=75,
  ecutrho=375,
  input_dft='pbe',
  occupations='smearing',
  smearing='mv',
  degauss=0.005d0,
/
&ELECTRONS
 conv_thr=1d-08,
 mixing_beta=0.7d0,
/
CELL_PARAMETERS {alat}
  1.000000000000000   0.000000000000000   0.000000000000000 
  0.000000000000000   1.000000000000000   0.000000000000000 
  0.500000000000000   0.500000000000000   1.112056369378882 
ATOMIC_SPECIES
  Al   26.98100  Al.pbe-n-kjpaw_psl.1.0.0.UPF
   H    1.00750   H.pbe-rrkjus_psl.1.0.0.UPF
  Na   22.98900  na_pbe_v1.5.uspp.F.UPF
ATOMIC_POSITIONS {crystal}
Al   0.875000000000000   0.125000000000000   0.250000000000000 
Al   0.125000000000000   0.875000000000000   0.750000000000000 
Na   0.375000000000000   0.625000000000000   0.250000000000000 
Na   0.625000000000000   0.375000000000000   0.750000000000000 
 H   0.063830000000000   0.719530000000000   0.587960000000000 
 H   0.719530000000000   0.348210000000000   0.087960000000000 
 H   0.807490000000000   0.936170000000000   0.912040000000000 
 H   0.651790000000000   0.807490000000000   0.412040000000000 
 H   0.348210000000000   0.192510000000000   0.587960000000000 
 H   0.936170000000000   0.280470000000000   0.412040000000000 
 H   0.280470000000000   0.651790000000000   0.912040000000000 
 H   0.192510000000000   0.063830000000000   0.087960000000000 
K_POINTS {automatic}
 6 6 3 0 0 0
