#************************************************************************************
#*                   Generated by cif2cell 2.0.0 2023-10-23 14:28                   *
#*  T. Bjorkman, Comp. Phys. Commun. 182, 1183-1186 (2011). Please cite generously. *
#*                                                                                  *
#*                              Data obtained from COD                              *
#*                                    None   ()                                     *
#*             Failed to get author information, No journal information             *
#************************************************************************************
&CONTROL
 calculation='scf',
 outdir='.',
 prefix='Na5Al3H14_experimental',
 pseudo_dir='../pseudopotentials',
 verbosity='low',
 tprnfor=.true.,
 tstress=.true.,
/
&SYSTEM
  ibrav = 0,
  A =    6.67364,
  nat = 44,
  ntyp = 3,
  ecutwfc=75,
  ecutrho=375,
  input_dft='pbe',
  occupations='smearing',
  smearing='mv',
  degauss=0.005d0,
/
&ELECTRONS
 conv_thr=1d-08,
 mixing_beta=0.7d0,
/
CELL_PARAMETERS {alat}
  1.000000000000000   0.000000000000000   0.000000000000000 
  0.000000000000000   1.000000000000000   0.000000000000000 
  0.000000000000000   0.000000000000000   1.529227499929686 
ATOMIC_SPECIES
   H    1.00750   H.pbe-rrkjus_psl.1.0.0.UPF
  Na   22.98900  na_pbe_v1.5.uspp.F.UPF
  Al   26.98100  Al.pbe-n-kjpaw_psl.1.0.0.UPF
ATOMIC_POSITIONS {crystal}
Al   0.000000000000000   0.000000000000000   0.500000000000000 
Al   0.500000000000000   0.500000000000000   0.000000000000000 
Al   0.000000000000000   0.500000000000000   0.000000000000000 
Al   0.500000000000000   0.000000000000000   0.500000000000000 
Al   0.000000000000000   0.500000000000000   0.500000000000000 
Al   0.500000000000000   0.000000000000000   0.000000000000000 
Na   0.000000000000000   0.000000000000000   0.000000000000000 
Na   0.500000000000000   0.500000000000000   0.500000000000000 
Na   0.787350000000000   0.287350000000000   0.250000000000000 
Na   0.712650000000000   0.787350000000000   0.250000000000000 
Na   0.212650000000000   0.712650000000000   0.250000000000000 
Na   0.712650000000000   0.787350000000000   0.750000000000000 
Na   0.212650000000000   0.712650000000000   0.750000000000000 
Na   0.287350000000000   0.212650000000000   0.250000000000000 
Na   0.287350000000000   0.212650000000000   0.750000000000000 
Na   0.787350000000000   0.287350000000000   0.750000000000000 
 H   0.043800000000000   0.320050000000000   0.117510000000000 
 H   0.456200000000000   0.820050000000000   0.382490000000000 
 H   0.179950000000000   0.456200000000000   0.382490000000000 
 H   0.456200000000000   0.820050000000000   0.617510000000000 
 H   0.179950000000000   0.456200000000000   0.617510000000000 
 H   0.956200000000000   0.679950000000000   0.117510000000000 
 H   0.320050000000000   0.956200000000000   0.117510000000000 
 H   0.956200000000000   0.679950000000000   0.882490000000000 
 H   0.320050000000000   0.956200000000000   0.882490000000000 
 H   0.679950000000000   0.043800000000000   0.117510000000000 
 H   0.043800000000000   0.320050000000000   0.882490000000000 
 H   0.679950000000000   0.043800000000000   0.882490000000000 
 H   0.543800000000000   0.179950000000000   0.382490000000000 
 H   0.820050000000000   0.543800000000000   0.382490000000000 
 H   0.543800000000000   0.179950000000000   0.617510000000000 
 H   0.820050000000000   0.543800000000000   0.617510000000000 
 H   0.000000000000000   0.000000000000000   0.329490000000000 
 H   0.500000000000000   0.500000000000000   0.170510000000000 
 H   0.500000000000000   0.500000000000000   0.829490000000000 
 H   0.000000000000000   0.000000000000000   0.670510000000000 
 H   0.252370000000000   0.575120000000000   0.000000000000000 
 H   0.247630000000000   0.075120000000000   0.500000000000000 
 H   0.924880000000000   0.247630000000000   0.500000000000000 
 H   0.747630000000000   0.424880000000000   0.000000000000000 
 H   0.575120000000000   0.747630000000000   0.000000000000000 
 H   0.424880000000000   0.252370000000000   0.000000000000000 
 H   0.752370000000000   0.924880000000000   0.500000000000000 
 H   0.075120000000000   0.752370000000000   0.500000000000000 
K_POINTS {automatic}
 6 6 4 0 0 0
