#************************************************************************************
#*                   Generated by cif2cell 2.1.0 2023-11-30 19:49                   *
#*  T. Bjorkman, Comp. Phys. Commun. 182, 1183-1186 (2011). Please cite generously. *
#*                                                                                  *
#*                              Data obtained from COD                              *
#*                                    None   ()                                     *
#*             Failed to get author information, No journal information             *
#************************************************************************************
&CONTROL
 calculation='vc-relax',
 outdir='.',
 prefix='na3gah6',
 pseudo_dir='/home/garima.iitr/.cache/.es/compmat/nagah4',
 verbosity='low',
 tprnfor=.true.,
 tstress=.true.,
/
&SYSTEM
  ibrav = 0
  A =    7.45886
  nat = 20
  ntyp = 3
ecutwfc=75,
  ecutrho=375,
  input_dft='pbe',
  occupations='smearing',
  smearing='mv',
  degauss=0.005d0,

/


&ELECTRONS
 conv_thr=1d-08,
 mixing_beta=0.7d0,
/

&IONS
 ion_dynamics='bfgs',
/
&CELL
 cell_dynamics='bfgs',
 press=0.d0,
 press_conv_thr=0.5d0,
/


CELL_PARAMETERS {alat}
  1.000000000000000   0.000000000000000   0.000000000000000
  0.000000000000000   1.037807177966605   0.000000000000000
 -1.000563179142061   0.000000000000000   1.440929560782917
ATOMIC_SPECIES
   H    1.00750   H.pbe-rrkjus_psl.1.0.0.UPF
  Ga   69.72300  Ga.pbe-dn-kjpaw_psl.1.0.0.UPF
  Na   22.98900  na_pbe_v1.5.uspp.F.UPF

ATOMIC_POSITIONS {crystal}
Ga            0.5000000000        0.0000000000        0.0000000000
Ga            0.5000000000        0.5000000000        0.5000000000
Na           -0.0000000000        0.0000000000        0.5000000000
Na            0.0000000000        0.5000000000        0.0000000000
Na            0.2698437578        0.8589447414        0.3576009595
Na            0.7301562422        0.1410552586        0.6423990405
Na            0.7301562422        0.3589447414        0.1423990405
Na            0.2698437578        0.6410552586        0.8576009595
H             0.3375176526        0.8530816440        0.5396757471
H             0.6624823474        0.1469183560        0.4603242529
H             0.6624823474        0.3530816440        0.9603242529
H             0.3375176526        0.6469183560        0.0396757471
H             0.6666520995        0.8954879063        0.9947078768
H             0.3333479005        0.1045120937        0.0052921232
H             0.3333479005        0.3954879063        0.5052921232
H             0.6666520995        0.6045120937        0.4947078768
H             0.2219905859        0.9145000132        0.8323668933
H             0.7780094141        0.0854999868        0.1676331067
H             0.7780094141        0.4145000132        0.6676331067
H             0.2219905859        0.5854999868        0.3323668933


K_POINTS {automatic}
 6 6 3 0 0 0

