#************************************************************************************
#*                   Generated by cif2cell 2.0.0 2023-10-17 20:55                   *
#*  T. Bjorkman, Comp. Phys. Commun. 182, 1183-1186 (2011). Please cite generously. *
#*                                                                                  *
#*                              Data obtained from COD                              *
#*                                    None   ()                                     *
#*             Failed to get author information, No journal information             *
#************************************************************************************
&CONTROL
 calculation='vc-relax',
 outdir='.',
 prefix='na5alh14',
 pseudo_dir  = "/home/garima.iitr/.cache/.es/compmat/na5alh14"
    outdir = "temp"
    disk_io= "none"

 verbosity='low',
 tprnfor=.true.,
 tstress=.true.,
/




&SYSTEM
  ibrav = 0
  A =    6.67364
  nat = 44
  ntyp = 3
  ecutwfc=75,
  ecutrho=375,
  input_dft='pbe',
  occupations='smearing',
  smearing='mv',
  degauss=0.005d0,


/

&ELECTRONS
 conv_thr=1d-08,
 mixing_beta=0.7d0,
/

&IONS
 ion_dynamics='bfgs',
/

&CELL
 cell_dynamics='bfgs',
 press=0.d0,
 press_conv_thr=0.5d0,
/

CELL_PARAMETERS {alat}
  1.000000000000000   0.000000000000000   0.000000000000000 
  0.000000000000000   1.000000000000000   0.000000000000000 
  0.000000000000000   0.000000000000000   1.529227499929686 
ATOMIC_SPECIES
  Al   26.98100  Al.pbe-n-kjpaw_psl.1.0.0.UPF
  Na   22.98900   na_pbe_v1.5.uspp.F.UPF
   H    1.00750   H.pbe-rrkjus_psl.1.0.0.UPF
ATOMIC_POSITIONS {crystal}
Al            0.0000000000        0.0000000000        0.5000000000
Al            0.5000000000        0.5000000000       -0.0000000000
Al            0.0000000000        0.5000000000        0.0000000000
Al            0.5000000000        0.0000000000        0.5000000000
Al            0.0000000000        0.5000000000        0.5000000000
Al            0.5000000000        0.0000000000       -0.0000000000
Na            0.0000000000        0.0000000000       -0.0000000000
Na            0.5000000000        0.5000000000        0.5000000000
Na            0.7867926915        0.2867926915        0.2500000000
Na            0.7132073085        0.7867926915        0.2500000000
Na            0.2132073085        0.7132073085        0.2500000000
Na            0.7132073085        0.7867926915        0.7500000000
Na            0.2132073085        0.7132073085        0.7500000000
Na            0.2867926915        0.2132073085        0.2500000000
Na            0.2867926915        0.2132073085        0.7500000000
Na            0.7867926915        0.2867926915        0.7500000000
H             0.0448119173        0.3192088292        0.1184175414
H             0.4551880827        0.8192088292        0.3815824586
H             0.1807911708        0.4551880827        0.3815824586
H             0.4551880827        0.8192088292        0.6184175414
H             0.1807911708        0.4551880827        0.6184175414
H             0.9551880827        0.6807911708        0.1184175414
H             0.3192088292        0.9551880827        0.1184175414
H             0.9551880827        0.6807911708        0.8815824586
H             0.3192088292        0.9551880827        0.8815824586
H             0.6807911708        0.0448119173        0.1184175414
H             0.0448119173        0.3192088292        0.8815824586
H             0.6807911708        0.0448119173        0.8815824586
H             0.5448119173        0.1807911708        0.3815824586
H             0.8192088292        0.5448119173        0.3815824586
H             0.5448119173        0.1807911708        0.6184175414
H             0.8192088292        0.5448119173        0.6184175414
H             0.0000000000        0.0000000000        0.3285153115
H             0.5000000000        0.5000000000        0.1714846885
H             0.5000000000        0.5000000000        0.8285153115
H             0.0000000000        0.0000000000        0.6714846885
H             0.2520913161        0.5781773156       -0.0000000000
H             0.2479086839        0.0781773156        0.5000000000
H             0.9218226844        0.2479086839        0.5000000000
H             0.7479086839        0.4218226844       -0.0000000000
H             0.5781773156        0.7479086839       -0.0000000000
H             0.4218226844        0.2520913161       -0.0000000000
H             0.7520913161        0.9218226844        0.5000000000
H             0.0781773156        0.7520913161        0.5000000000


K_POINTS {automatic}
 6 6 4 0 0 0 
