#************************************************************************************
#*                   Generated by cif2cell 2.0.0 2023-10-17 20:54                   *
#*  T. Bjorkman, Comp. Phys. Commun. 182, 1183-1186 (2011). Please cite generously. *
#*                                                                                  *
#*                              Data obtained from COD                              *
#*                                    None   ()                                     *
#*             Failed to get author information, No journal information             *
#************************************************************************************

&CONTROL
 calculation='vc-relax',
 outdir='.',
 prefix='na3alh6',
 pseudo_dir  = "/home/garima.iitr/.cache/.es/compmat/na3alh6"
    outdir = "temp"
    disk_io= "none"

 verbosity='low',
 tprnfor=.true.,
 tstress=.true.,
/


&SYSTEM
  ibrav = 0
  A =    5.29340
  nat = 20
  ntyp = 3
 ecutwfc=75,
  ecutrho=375,
  input_dft='pbe',
  occupations='smearing',
  smearing='mv',
  degauss=0.005d0,
/
&ELECTRONS
 conv_thr=1d-08,
 mixing_beta=0.7d0,
/

&IONS
 ion_dynamics='bfgs',
/


&CELL
 cell_dynamics='bfgs',
 press=0.d0,
 press_conv_thr=0.5d0,
/
CELL_PARAMETERS {alat}
  1.000000000000000   0.000000000000000   0.000000000000000 
  0.000000000000000   1.037180254560095   0.000000000000000 
 -0.999562378794505   0.000000000000000   1.439488289671509 
ATOMIC_SPECIES
   Al   26.98100  Al.pbe-n-kjpaw_psl.1.0.0.UPF
   H    1.00750   H.pbe-rrkjus_psl.1.0.0.UPF
  Na   22.98900  na_pbe_v1.5.uspp.F.UPF
ATOMIC_POSITIONS {crystal}
Al            0.5000000000        0.0000000000        0.0000000000
Al            0.5000000000        0.5000000000        0.5000000000
Na           -0.0000000000        0.0000000000        0.5000000000
Na            0.0000000000        0.5000000000        0.0000000000
Na            0.2575387641        0.9529061849        0.2465724682
Na            0.7424612359        0.0470938151        0.7534275318
Na            0.7424612359        0.4529061849        0.2534275318
Na            0.2575387641        0.5470938151        0.7465724682
H             0.4015475728        0.7679252051        0.5631617623
H             0.5984524272        0.2320747949        0.4368382377
H             0.5984524272        0.2679252051        0.9368382377
H             0.4015475728        0.7320747949        0.0631617623
H             0.7291333023        0.8298476525        0.9564502687
H             0.2708666977        0.1701523475        0.0435497313
H             0.2708666977        0.3298476525        0.5435497313
H             0.7291333023        0.6701523475        0.4564502687
H             0.1828129401        0.9522814922        0.7826684429
H             0.8171870599        0.0477185078        0.2173315571
H             0.8171870599        0.4522814922        0.7173315571
H             0.1828129401        0.5477185078        0.2826684429

K_POINTS {automatic}
 6 6 4 0 0 0
