#************************************************************************************
#*                   Generated by cif2cell 2.0.0 2023-11-28 19:26                   *
#*  T. Bjorkman, Comp. Phys. Commun. 182, 1183-1186 (2011). Please cite generously. *
#*                                                                                  *
#*                              Data obtained from COD                              *
#*                                   NaGaH4   ()                                    *
#*             Failed to get author information, No journal information             *
#************************************************************************************
&CONTROL
 calculation='vc-relax',
 outdir='.',
 prefix='nagah4',
 pseudo_dir='/home/garima.iitr/.cache/.es/compmat/nagah4',
 verbosity='low',
 tprnfor=.true.,
 tstress=.true.,
/
&SYSTEM
  ibrav = 0,
  A =    6.96691,
  nat = 12,
  ntyp = 3,
  ecutwfc=75,
  ecutrho=375,
  input_dft='pbe',
  occupations='smearing',
  smearing='mv',
  degauss=0.005d0,
/
&ELECTRONS
 conv_thr=1d-08,
 mixing_beta=0.7d0,
/

&IONS
 ion_dynamics='bfgs',
/
&CELL
 cell_dynamics='bfgs',
 press=0.d0,
 press_conv_thr=0.5d0,
/


CELL_PARAMETERS {alat}
  0.500000000000000  -0.451541424557898   0.000000000000000 
  0.500000000000000   0.451541424557898   0.000000000000000 
  0.000000000000000   0.000000000000000   1.011766532129179 
ATOMIC_SPECIES
   H    1.00750   H.pbe-rrkjus_psl.1.0.0.UPF
  Ga   69.72300  Ga.pbe-dn-kjpaw_psl.1.0.0.UPF
  Na   22.98900  na_pbe_v1.5.uspp.F.UPF
ATOMIC_POSITIONS {crystal}
Ga            0.8418726390        0.1581273610        0.7500000000
Ga            0.1581273610        0.8418726390        0.2500000000
Na            0.6579193184        0.3420806816        0.2500000000
Na            0.3420806816        0.6579193184        0.7500000000
H             0.6891700272        0.3108299728        0.5696546507
H             0.6891700272        0.3108299728        0.9303453493
H             0.3108299728        0.6891700272        0.0696546507
H             0.3108299728        0.6891700272        0.4303453493
H             0.1766627347        0.1930537308        0.7500000000
H             0.1930537308        0.1766627347        0.2500000000
H             0.8233372653        0.8069462692        0.2500000000
H             0.8069462692        0.8233372653        0.7500000000



K_POINTS {automatic}
 6 6 6 0 0 0

