#************************************************************************************
#*                   Generated by cif2cell 2.0.0 2023-10-23 14:29                   *
#*  T. Bjorkman, Comp. Phys. Commun. 182, 1183-1186 (2011). Please cite generously. *
#*                                                                                  *
#*                              Data obtained from COD                              *
#*                                    None   ()                                     *
#*             Failed to get author information, No journal information             *
#************************************************************************************
&CONTROL
 calculation='vc-relax',
 outdir='.',
 prefix='NaH',
 pseudo_dir='/home/garima.iitr/.cache/.es/compmat/nah',
 outdir = "temp"
    disk_io= "none"
 verbosity='low',
 tprnfor=.true.,
 tstress=.true.,
/
&SYSTEM
  ibrav = 0,
  A =    4.77284,
  nat = 2,
  ntyp = 2,
  ecutwfc=75,
  ecutrho=375,
  input_dft='pbe',
  occupations='smearing',
  smearing='mv',
  degauss=0.005d0,
/
&ELECTRONS
 conv_thr=1d-08,
 mixing_beta=0.7d0,
/

&IONS
 ion_dynamics='bfgs',
/

&CELL
 cell_dynamics='bfgs',
 press=0.d0,
 press_conv_thr=0.5d0,
/
CELL_PARAMETERS {alat}
  0.500000000000000   0.500000000000000   0.000000000000000 
  0.500000000000000   0.000000000000000   0.500000000000000 
  0.000000000000000   0.500000000000000   0.500000000000000 
ATOMIC_SPECIES
   H    1.00750   H.pbe-rrkjus_psl.1.0.0.UPF
  Na   22.98900  na_pbe_v1.5.uspp.F.UPF
ATOMIC_POSITIONS {crystal}
Na            0.0000000000        0.0000000000        0.0000000000
H             0.5000000000        0.5000000000        0.5000000000


K_POINTS {automatic}
 6 6 6 0 0 0
