#************************************************************************************
#*                   Generated by cif2cell 2.1.0 2023-11-27 8:34                    *
#*  T. Bjorkman, Comp. Phys. Commun. 182, 1183-1186 (2011). Please cite generously. *
#*                                                                                  *
#*                              Data obtained from COD                              *
#*                                    None   ()                                     *
#*             Failed to get author information, No journal information             *
#************************************************************************************
&CONTROL
 calculation='vc-relax',
 outdir='.',
 prefix='k3alh6',
 pseudo_dir='/home/garima.iitr/.cache/.es/compmat/kalh4',
 verbosity='low',
 tprnfor=.true.,
 tstress=.true.,
/

&SYSTEM
  ibrav = 0
  A =    5.97514
  nat = 20
  ntyp = 3
  ecutwfc=75,
  ecutrho=375,
  input_dft='pbe',
  occupations='smearing',
  smearing='mv',
  degauss=0.005d0,

/
&ELECTRONS
 conv_thr=1d-08,
 mixing_beta=0.7d0,
/

&IONS
 ion_dynamics='bfgs',
/

&CELL
 cell_dynamics='bfgs',
 press=0.d0,
 press_conv_thr=0.5d0,
/

CELL_PARAMETERS {alat}
  1.000000000000000   0.000000000000000   0.000000000000000
  0.000000000000000   1.006240502320948   0.000000000000000
 -0.986031627735521   0.000000000000000   1.419370755321706
ATOMIC_SPECIES
 Al   26.98100  Al.pbe-n-kjpaw_psl.1.0.0.UPF
   H    1.00750   H.pbe-rrkjus_psl.1.0.0.UPF
   K   39.09830   K.pbe-spn-kjpaw_psl.1.0.0.UPF


ATOMIC_POSITIONS (crystal)
K             0.7429433753        0.5281183457        0.2490437660
K             0.2570566247        0.4718816543        0.7509562340
K             0.2570566247        0.0281183457        0.2509562340
K             0.7429433753        0.9718816543        0.7490437660
K            -0.0000000000        0.0000000000        0.5000000000
K             0.0000000000        0.5000000000        0.0000000000
Al            0.5000000000        0.0000000000        0.0000000000
Al            0.5000000000        0.5000000000        0.5000000000
H             0.6317091292        0.7390654155        0.4641293597
H             0.3682908708        0.2609345845        0.5358706403
H             0.3682908708        0.2390654155        0.0358706403
H             0.6317091292        0.7609345845        0.9641293597
H             0.7080581533        0.1718112348        0.9707961772
H             0.2919418467        0.8281887652        0.0292038228
H             0.2919418467        0.6718112348        0.5292038228
H             0.7080581533        0.3281887652        0.4707961772
H             0.7630006381        0.5194887107        0.7037187813
H             0.2369993619        0.4805112893        0.2962812187
H             0.2369993619        0.0194887107        0.7962812187
H             0.7630006381        0.9805112893        0.2037187813

K_POINTS {automatic}
 6 6 6 0 0 0

