#************************************************************************************
#*                   Generated by cif2cell 2.0.0 2023-11-14 20:30                   *
#*  T. Bjorkman, Comp. Phys. Commun. 182, 1183-1186 (2011). Please cite generously. *
#*                                                                                  *
#*                              Data obtained from COD                              *
#*                                    KAlH4   ()                                    *
#*             Failed to get author information, No journal information             *
#************************************************************************************
&CONTROL
 calculation='vc-relax',
 outdir='.',
 prefix='kalh4',
 pseudo_dir='/home/garima.iitr/.cache/.es/compmat/kalh4',
 verbosity='low',
 tprnfor=.true.,
 tstress=.true.,
/
&SYSTEM
  ibrav = 0,
  A =    8.76807,
  nat = 24,
  ntyp = 3,
  ecutwfc=75,
  ecutrho=375,
  input_dft='pbe',
  occupations='smearing',
  smearing='mv',
  degauss=0.005d0,
/
&ELECTRONS
 conv_thr=1d-08,
 mixing_beta=0.7d0,
/  

&IONS
 ion_dynamics='bfgs',
/

&CELL
 cell_dynamics='bfgs',
 press=0.d0,
 press_conv_thr=0.5d0,
/

CELL_PARAMETERS {alat}
  1.000000000000000   0.000000000000000   0.000000000000000 
  0.000000000000000   0.652381436111070   0.000000000000000 
  0.000000000000000   0.000000000000000   0.829295790312273 
ATOMIC_SPECIES
  Al   26.98100  Al.pbe-n-kjpaw_psl.1.0.0.UPF
   H    1.00750   H.pbe-rrkjus_psl.1.0.0.UPF
   K   39.09830   K.pbe-spn-kjpaw_psl.1.0.0.UPF
ATOMIC_POSITIONS (crystal)
K             0.1764602255        0.2500000000        0.1652784563
K             0.3235397745        0.7500000000        0.6652784563
K             0.8235397745        0.7500000000        0.8347215437
K             0.6764602255        0.2500000000        0.3347215437
Al            0.0687993182        0.2500000000        0.6791431807
Al            0.4312006818        0.7500000000        0.1791431807
Al            0.9312006818        0.7500000000        0.3208568193
Al            0.5687993182        0.2500000000        0.8208568193
H             0.0780832498        0.0193196199        0.8118385343
H             0.4219167502        0.5193196199        0.3118385343
H             0.4219167502        0.9806803801        0.3118385343
H             0.9219167502        0.5193196199        0.1881614657
H             0.9219167502        0.9806803801        0.1881614657
H             0.5780832498        0.4806803801        0.6881614657
H             0.5780832498        0.0193196199        0.6881614657
H             0.0780832498        0.4806803801        0.8118385343
H             0.0911078360        0.7500000000        0.4345192055
H             0.4088921640        0.2500000000        0.9345192055
H             0.9088921640        0.2500000000        0.5654807945
H             0.5911078360        0.7500000000        0.0654807945
H             0.2169189313        0.2500000000        0.5433093303
H             0.2830810687        0.7500000000        0.0433093303
H             0.7830810687        0.7500000000        0.4566906697
H             0.7169189313        0.2500000000        0.9566906697


K_POINTS {automatic}
 4 6 5 0 0 0

