#************************************************************************************
#*                   Generated by cif2cell 2.0.0 2023-10-17 20:54                   *
#*  T. Bjorkman, Comp. Phys. Commun. 182, 1183-1186 (2011). Please cite generously. *
#*                                                                                  *
#*                              Data obtained from COD                              *
#*                                    None   ()                                     *
#*             Failed to get author information, No journal information             *
#************************************************************************************

&SYSTEM
  ibrav = 0
  A =    5.29340
  nat = 20
  ntyp = 3
/
CELL_PARAMETERS {alat}
  1.000000000000000   0.000000000000000   0.000000000000000 
  0.000000000000000   1.037180254560095   0.000000000000000 
 -0.999562378794505   0.000000000000000   1.439488289671509 
ATOMIC_SPECIES
   H    1.00750   H_PSEUDO
  Na   22.98900  Na_PSEUDO
  Al   26.98100  Al_PSEUDO
ATOMIC_POSITIONS {crystal}
Al   0.500000000000000   0.000000000000000   0.000000000000000 
Al   0.500000000000000   0.500000000000000   0.500000000000000 
Na   0.000000000000000   0.000000000000000   0.500000000000000 
Na   0.000000000000000   0.500000000000000   0.000000000000000 
Na   0.257640000000000   0.952720000000000   0.246470000000000 
Na   0.742360000000000   0.047280000000000   0.753530000000000 
Na   0.742360000000000   0.452720000000000   0.253530000000000 
Na   0.257640000000000   0.547280000000000   0.746470000000000 
 H   0.401690000000000   0.767240000000000   0.562980000000000 
 H   0.598310000000000   0.232760000000000   0.437020000000000 
 H   0.598310000000000   0.267240000000000   0.937020000000000 
 H   0.401690000000000   0.732760000000000   0.062980000000000 
 H   0.728520000000000   0.830280000000000   0.956560000000000 
 H   0.271480000000000   0.169720000000000   0.043440000000000 
 H   0.271480000000000   0.330280000000000   0.543440000000000 
 H   0.728520000000000   0.669720000000000   0.456560000000000 
 H   0.183750000000000   0.952300000000000   0.783260000000000 
 H   0.816250000000000   0.047700000000000   0.216740000000000 
 H   0.816250000000000   0.452300000000000   0.716740000000000 
 H   0.183750000000000   0.547700000000000   0.283260000000000 
