#************************************************************************************
#*                   Generated by cif2cell 2.0.0 2023-10-17 20:55                   *
#*  T. Bjorkman, Comp. Phys. Commun. 182, 1183-1186 (2011). Please cite generously. *
#*                                                                                  *
#*                              Data obtained from COD                              *
#*                                    None   ()                                     *
#*             Failed to get author information, No journal information             *
#************************************************************************************

&SYSTEM
  ibrav = 0
  A =    6.67364
  nat = 44
  ntyp = 3
/
CELL_PARAMETERS {alat}
  1.000000000000000   0.000000000000000   0.000000000000000 
  0.000000000000000   1.000000000000000   0.000000000000000 
  0.000000000000000   0.000000000000000   1.529227499929686 
ATOMIC_SPECIES
  Al   26.98100  Al_PSEUDO
  Na   22.98900  Na_PSEUDO
   H    1.00750   H_PSEUDO
ATOMIC_POSITIONS {crystal}
Al   0.000000000000000   0.000000000000000   0.500000000000000 
Al   0.500000000000000   0.500000000000000   0.000000000000000 
Al   0.000000000000000   0.500000000000000   0.000000000000000 
Al   0.500000000000000   0.000000000000000   0.500000000000000 
Al   0.000000000000000   0.500000000000000   0.500000000000000 
Al   0.500000000000000   0.000000000000000   0.000000000000000 
Na   0.000000000000000   0.000000000000000   0.000000000000000 
Na   0.500000000000000   0.500000000000000   0.500000000000000 
Na   0.787350000000000   0.287350000000000   0.250000000000000 
Na   0.712650000000000   0.787350000000000   0.250000000000000 
Na   0.212650000000000   0.712650000000000   0.250000000000000 
Na   0.712650000000000   0.787350000000000   0.750000000000000 
Na   0.212650000000000   0.712650000000000   0.750000000000000 
Na   0.287350000000000   0.212650000000000   0.250000000000000 
Na   0.287350000000000   0.212650000000000   0.750000000000000 
Na   0.787350000000000   0.287350000000000   0.750000000000000 
 H   0.043800000000000   0.320050000000000   0.117510000000000 
 H   0.456200000000000   0.820050000000000   0.382490000000000 
 H   0.179950000000000   0.456200000000000   0.382490000000000 
 H   0.456200000000000   0.820050000000000   0.617510000000000 
 H   0.179950000000000   0.456200000000000   0.617510000000000 
 H   0.956200000000000   0.679950000000000   0.117510000000000 
 H   0.320050000000000   0.956200000000000   0.117510000000000 
 H   0.956200000000000   0.679950000000000   0.882490000000000 
 H   0.320050000000000   0.956200000000000   0.882490000000000 
 H   0.679950000000000   0.043800000000000   0.117510000000000 
 H   0.043800000000000   0.320050000000000   0.882490000000000 
 H   0.679950000000000   0.043800000000000   0.882490000000000 
 H   0.543800000000000   0.179950000000000   0.382490000000000 
 H   0.820050000000000   0.543800000000000   0.382490000000000 
 H   0.543800000000000   0.179950000000000   0.617510000000000 
 H   0.820050000000000   0.543800000000000   0.617510000000000 
 H   0.000000000000000   0.000000000000000   0.329490000000000 
 H   0.500000000000000   0.500000000000000   0.170510000000000 
 H   0.500000000000000   0.500000000000000   0.829490000000000 
 H   0.000000000000000   0.000000000000000   0.670510000000000 
 H   0.252370000000000   0.575120000000000   0.000000000000000 
 H   0.247630000000000   0.075120000000000   0.500000000000000 
 H   0.924880000000000   0.247630000000000   0.500000000000000 
 H   0.747630000000000   0.424880000000000   0.000000000000000 
 H   0.575120000000000   0.747630000000000   0.000000000000000 
 H   0.424880000000000   0.252370000000000   0.000000000000000 
 H   0.752370000000000   0.924880000000000   0.500000000000000 
 H   0.075120000000000   0.752370000000000   0.500000000000000 
