#************************************************************************************
#*                   Generated by cif2cell 2.1.0 2023-11-30 19:51                   *
#*  T. Bjorkman, Comp. Phys. Commun. 182, 1183-1186 (2011). Please cite generously. *
#*                                                                                  *
#*                              Data obtained from COD                              *
#*                                    None   ()                                     *
#*             Failed to get author information, No journal information             *
#************************************************************************************
&CONTROL
 calculation='vc-relax',
 outdir='.',
 prefix='na5ga3h14',
 pseudo_dir='/home/garima.iitr/.cache/.es/compmat/na5ga3h14',
 verbosity='low',
 tprnfor=.true.,
 tstress=.true.,
/

&SYSTEM
  ibrav = 0
  A =    9.40464
  nat = 44
  ntyp = 3
  ecutwfc=75,
  ecutrho=375,
  input_dft='pbe',
  occupations='smearing',
  smearing='mv',
  degauss=0.005d0,

/

&ELECTRONS
 conv_thr=1d-08,
 mixing_beta=0.7d0,
/

 &IONS
 ion_dynamics='bfgs',
/
&CELL
 cell_dynamics='bfgs',
 press=0.d0,
 press_conv_thr=0.5d0,
/

CELL_PARAMETERS {alat}
  1.000000000000000   0.000000000000000   0.000000000000000
  0.000000000000000   1.000000000000000   0.000000000000000
  0.000000000000000   0.000000000000000   1.530734595428150
ATOMIC_SPECIES
  Ga   69.72300  Ga.pbe-dn-kjpaw_psl.1.0.0.UPF
  Na   22.98900  na_pbe_v1.5.uspp.F.UPF
   H    1.00750   H.pbe-rrkjus_psl.1.0.0.UPF
ATOMIC_POSITIONS {crystal}
Ga            0.0000000000        0.0000000000        0.5000000000
Ga            0.5000000000        0.5000000000        0.0000000000
Ga            0.0000000000        0.5000000000        0.0000000000
Ga            0.5000000000        0.0000000000        0.5000000000
Ga            0.0000000000        0.5000000000        0.5000000000
Ga            0.5000000000        0.0000000000        0.0000000000
Na            0.0000000000        0.0000000000       -0.0000000000
Na            0.5000000000        0.5000000000        0.5000000000
Na            0.7873693316        0.2873693316        0.2500000000
Na            0.7126306684        0.7873693316        0.2500000000
Na            0.2126306684        0.7126306684        0.2500000000
Na            0.7126306684        0.7873693316        0.7500000000
Na            0.2126306684        0.7126306684        0.7500000000
Na            0.2873693316        0.2126306684        0.2500000000
Na            0.2873693316        0.2126306684        0.7500000000
Na            0.7873693316        0.2873693316        0.7500000000
H             0.0420161654        0.3246583315        0.1149741256
H             0.4579838346        0.8246583315        0.3850258744
H             0.1753416685        0.4579838346        0.3850258744
H             0.4579838346        0.8246583315        0.6149741256
H             0.1753416685        0.4579838346        0.6149741256
H             0.9579838346        0.6753416685        0.1149741256
H             0.3246583315        0.9579838346        0.1149741256
H             0.9579838346        0.6753416685        0.8850258744
H             0.3246583315        0.9579838346        0.8850258744
H             0.6753416685        0.0420161654        0.1149741256
H             0.0420161654        0.3246583315        0.8850258744
H             0.6753416685        0.0420161654        0.8850258744
H             0.5420161654        0.1753416685        0.3850258744
H             0.8246583315        0.5420161654        0.3850258744
H             0.5420161654        0.1753416685        0.6149741256
H             0.8246583315        0.5420161654        0.6149741256
H             0.0000000000        0.0000000000        0.3342268228
H             0.5000000000        0.5000000000        0.1657731772
H             0.5000000000        0.5000000000        0.8342268228
H             0.0000000000        0.0000000000        0.6657731772
H             0.2530104651        0.5703088820        0.0000000000
H             0.2469895349        0.0703088820        0.5000000000
H             0.9296911180        0.2469895349        0.5000000000
H             0.7469895349        0.4296911180        0.0000000000
H             0.5703088820        0.7469895349        0.0000000000
H             0.4296911180        0.2530104651        0.0000000000
H             0.7530104651        0.9296911180        0.5000000000


K_POINTS {automatic}
 6 6 4 0 0 0

