#************************************************************************************
#*                   Generated by cif2cell 2.0.0 2023-11-28 19:24                   *
#*  T. Bjorkman, Comp. Phys. Commun. 182, 1183-1186 (2011). Please cite generously. *
#*                                                                                  *
#*                              Data obtained from COD                              *
#*                                     BH3   ()                                     *
#*             Failed to get author information, No journal information             *
#************************************************************************************
&CONTROL
 calculation='vc-relax',
 outdir='.',
 prefix='bh3',
 pseudo_dir='/home/garima.iitr/.cache/.es/compmat/bh3',
 verbosity='low',
 tprnfor=.true.,
 tstress=.true.,
/
&SYSTEM
  ibrav = 0,
  A =    4.29060,
  nat = 16,
  ntyp = 2,
  ecutwfc=75,
  ecutrho=375,
  input_dft='pbe',
  occupations='smearing',
  smearing='mv',
  degauss=0.005d0,
/
&ELECTRONS
 conv_thr=1d-08,
 mixing_beta=0.7d0,
/

&IONS
 ion_dynamics='bfgs',
/

&CELL
 cell_dynamics='bfgs',
 press=0.d0,
 press_conv_thr=0.5d0,
/


CELL_PARAMETERS {alat}
  1.000000000000000   0.000000000000000   0.000000000000000 
  0.000000000000000   1.442471705645345   0.000000000000000 
 -0.644893823642674   0.000000000000000   1.291379442279379 
ATOMIC_SPECIES
   B   10.81350   b_pbe_v1.4.uspp.F.UPF
   H    1.00750   H.pbe-rrkjus_psl.1.0.0.UPF
ATOMIC_POSITIONS {crystal}
B             0.1421475330        0.5436581385        0.6443004729
B             0.8578524670        0.4563418615        0.3556995271
B             0.8578524670        0.0436581385        0.8556995271
B             0.1421475330        0.9563418615        0.1443004729
H             0.0878937199        0.0049810536        0.3109590124
H             0.9121062801        0.9950189464        0.6890409876
H             0.9121062801        0.5049810536        0.1890409876
H             0.0878937199        0.4950189464        0.8109590124
H             0.1417569354        0.1321189147        0.0241757751
H             0.8582430646        0.8678810853        0.9758242249
H             0.8582430646        0.6321189147        0.4758242249
H             0.1417569354        0.3678810853        0.5241757751
H             0.3874343926        0.6515319688        0.6714651309
H             0.6125656074        0.3484680312        0.3285348691
H             0.6125656074        0.1515319688        0.8285348691
H             0.3874343926        0.8484680312        0.1714651309

K_POINTS {automatic}
 6 5 5 0 0 0

