#************************************************************************************
#*                   Generated by cif2cell 2.0.0 2023-12-01 20:49                   *
#*  T. Bjorkman, Comp. Phys. Commun. 182, 1183-1186 (2011). Please cite generously. *
#*                                                                                  *
#*                              Data obtained from COD                              *
#*                                   K3AlH6   ()                                    *
#*             Failed to get author information, No journal information             *
#************************************************************************************
&CONTROL
 calculation='scf',
 outdir='.',
 prefix='K3AlH6_experimental',
 pseudo_dir='../../pseudopotentials',
 verbosity='low',
 tprnfor=.true.,
 tstress=.true.,
/
&SYSTEM
  ibrav = 0,
  A =    5.97514,
  nat = 20,
  ntyp = 3,
  ecutwfc=75,
  ecutrho=375,
  input_dft='pbe',
  occupations='smearing',
  smearing='mv',
  degauss=0.005d0,
/
&ELECTRONS
 conv_thr=1d-08,
 mixing_beta=0.7d0,
/
CELL_PARAMETERS {alat}
  1.000000000000000   0.000000000000000   0.000000000000000 
  0.000000000000000   1.006240514067479   0.000000000000000 
 -0.986031637248760   0.000000000000000   1.419370767429727 
ATOMIC_SPECIES
   H    1.00750   H.pbe-rrkjus_psl.1.0.0.UPF
  Al   26.98100  Al.pbe-n-kjpaw_psl.1.0.0.UPF
   K   39.09830   K.pbe-spn-kjpaw_psl.1.0.0.UPF
ATOMIC_POSITIONS {crystal}
 K   0.242928750000000   0.028307170000000   0.749056210000000 
 K   0.757071250000000   0.971692830000000   0.250943790000000 
 K   0.757071250000000   0.528307170000000   0.750943790000000 
 K   0.242928750000000   0.471692830000000   0.249056210000000 
 K   0.500000000000000   0.000000000000000   0.500000000000000 
 K   0.500000000000000   0.500000000000000   0.000000000000000 
Al   0.000000000000000   0.000000000000000   0.000000000000000 
Al   0.000000000000000   0.500000000000000   0.500000000000000 
 H   0.131175100000000   0.238232320000000   0.964232140000000 
 H   0.868824900000000   0.761767680000000   0.035767860000000 
 H   0.868824900000000   0.738232320000000   0.535767860000000 
 H   0.131175100000000   0.261767680000000   0.464232140000000 
 H   0.207385460000000   0.671131320000000   0.470918770000000 
 H   0.792614540000000   0.328868680000000   0.529081230000000 
 H   0.792614540000000   0.171131320000000   0.029081230000000 
 H   0.207385460000000   0.828868680000000   0.970918770000000 
 H   0.261976250000000   0.019460600000000   0.202977740000000 
 H   0.738023750000000   0.980539400000000   0.797022260000000 
 H   0.738023750000000   0.519460600000000   0.297022260000000 
 H   0.261976250000000   0.480539400000000   0.702977740000000 
K_POINTS {automatic}
 6 6 4 0 0 0
