#************************************************************************************
#*                   Generated by cif2cell 2.0.0 2023-11-14 20:30                   *
#*  T. Bjorkman, Comp. Phys. Commun. 182, 1183-1186 (2011). Please cite generously. *
#*                                                                                  *
#*                              Data obtained from COD                              *
#*                                    KAlH4   ()                                    *
#*             Failed to get author information, No journal information             *
#************************************************************************************
&CONTROL
 calculation='scf',
 outdir='.',
 prefix='KAlH4_exploring',
 pseudo_dir='../pseudopotentials',
 verbosity='low',
 tprnfor=.true.,
 tstress=.true.,
/
&SYSTEM
  ibrav = 0,
  A =    8.76807,
  nat = 24,
  ntyp = 3,
  ecutwfc=75,
  ecutrho=375,
  input_dft='pbe',
  occupations='smearing',
  smearing='mv',
  degauss=0.005d0,
/
CELL_PARAMETERS {alat}
  1.000000000000000   0.000000000000000   0.000000000000000 
  0.000000000000000   0.652381436111070   0.000000000000000 
  0.000000000000000   0.000000000000000   0.829295790312273 
ATOMIC_SPECIES
  Al   26.98100  Al.pbe-n-kjpaw_psl.1.0.0.UPF
   H    1.00750   H.pbe-rrkjus_psl.1.0.0.UPF
   K   39.09830   K.pbe-spn-kjpaw_psl.1.0.0.UPF
ATOMIC_POSITIONS {crystal}
 K   0.176456920000000   0.250000000000000   0.165371880000000 
 K   0.323543080000000   0.750000000000000   0.665371880000000 
 K   0.823543080000000   0.750000000000000   0.834628120000000 
 K   0.676456920000000   0.250000000000000   0.334628120000000 
Al   0.068793770000000   0.250000000000000   0.679448040000000 
Al   0.431206230000000   0.750000000000000   0.179448040000000 
Al   0.931206230000000   0.750000000000000   0.320551960000000 
Al   0.568793770000000   0.250000000000000   0.820551960000000 
 H   0.077853500000000   0.020637660000000   0.810799060000000 
 H   0.422146500000000   0.520637660000000   0.310799060000000 
 H   0.422146500000000   0.979362340000000   0.310799060000000 
 H   0.922146500000000   0.520637660000000   0.189200940000000 
 H   0.922146500000000   0.979362340000000   0.189200940000000 
 H   0.577853500000000   0.479362340000000   0.689200940000000 
 H   0.577853500000000   0.020637660000000   0.689200940000000 
 H   0.077853500000000   0.479362340000000   0.810799060000000 
 H   0.090017760000000   0.750000000000000   0.433977220000000 
 H   0.409982240000000   0.250000000000000   0.933977220000000 
 H   0.909982240000000   0.250000000000000   0.566022780000000 
 H   0.590017760000000   0.750000000000000   0.066022780000000 
 H   0.215941290000000   0.250000000000000   0.544330380000000 
 H   0.284058710000000   0.750000000000000   0.044330380000000 
 H   0.784058710000000   0.750000000000000   0.455669620000000 
 H   0.715941290000000   0.250000000000000   0.955669620000000 
K_POINTS {automatic}
 4 6 5 0 0 0
