#************************************************************************************
#*                   Generated by cif2cell 2.0.0 2023-11-14 20:51                   *
#*  T. Bjorkman, Comp. Phys. Commun. 182, 1183-1186 (2011). Please cite generously. *
#*                                                                                  *
#*                              Data obtained from COD                              *
#*                                    None   ()                                     *
#*             Failed to get author information, No journal information             *
#************************************************************************************
&CONTROL
 calculation='scf',
 outdir='.',
 prefix='LiAlH4_experimental',
 pseudo_dir='../../pseudopotentials',
 verbosity='low',
 tprnfor=.true.,
 tstress=.true.,
/
&SYSTEM
  ibrav = 0,
  A =    4.86191,
  nat = 24,
  ntyp = 3,
  ecutwfc=75,
  ecutrho=375,
  input_dft='pbe',
  occupations='smearing',
  smearing='mv',
  degauss=0.005d0,
/
&ELECTRONS
 conv_thr=1d-08,
 mixing_beta=0.7d0,
/
CELL_PARAMETERS {alat}
  1.000000000000000   0.000000000000000   0.000000000000000 
  0.000000000000000   1.609388411013040   0.000000000000000 
 -0.601271434988989   0.000000000000000   1.502901225408172 
ATOMIC_SPECIES
  Li    6.96750  li_pbe_v1.4.uspp.F.UPF
  Al   26.98100  Al.pbe-n-kjpaw_psl.1.0.0.UPF
   H    1.00750   H.pbe-rrkjus_psl.1.0.0.UPF
ATOMIC_POSITIONS {crystal}
Al   0.639750000000000   0.202160000000000   0.932310000000000 
Al   0.360250000000000   0.797840000000000   0.067690000000000 
Al   0.360250000000000   0.702160000000000   0.567690000000000 
Al   0.639750000000000   0.297840000000000   0.432310000000000 
Li   0.929310000000000   0.535230000000000   0.175660000000000 
Li   0.070690000000000   0.464770000000000   0.824340000000000 
Li   0.070690000000000   0.035230000000000   0.324340000000000 
Li   0.929310000000000   0.964770000000000   0.675660000000000 
 H   0.682430000000000   0.099040000000000   0.764310000000000 
 H   0.317570000000000   0.900960000000000   0.235690000000000 
 H   0.317570000000000   0.599040000000000   0.735690000000000 
 H   0.682430000000000   0.400960000000000   0.264310000000000 
 H   0.701880000000000   0.735980000000000   0.127620000000000 
 H   0.298120000000000   0.264020000000000   0.872380000000000 
 H   0.298120000000000   0.235980000000000   0.372380000000000 
 H   0.701880000000000   0.764020000000000   0.627620000000000 
 H   0.738200000000000   0.082590000000000   0.114220000000000 
 H   0.261800000000000   0.917410000000000   0.885780000000000 
 H   0.261800000000000   0.582590000000000   0.385780000000000 
 H   0.738200000000000   0.417410000000000   0.614220000000000 
 H   0.853800000000000   0.127990000000000   0.477770000000000 
 H   0.146200000000000   0.872010000000000   0.522230000000000 
 H   0.146200000000000   0.627990000000000   0.022230000000000 
 H   0.853800000000000   0.372010000000000   0.977770000000000 
K_POINTS {automatic}
 4 6 6 0 0 0
