#************************************************************************************
#*                   Generated by cif2cell 2.0.0 2023-11-14 21:29                   *
#*  T. Bjorkman, Comp. Phys. Commun. 182, 1183-1186 (2011). Please cite generously. *
#*                                                                                  *
#*                              Data obtained from COD                              *
#*                                     LiH   ()                                     *
#*             Failed to get author information, No journal information             *
#************************************************************************************
&CONTROL
 calculation='scf',
 outdir='.',
 prefix='LiH_experimental',
 pseudo_dir='../../pseudopotentials',
 verbosity='low',
 tprnfor=.true.,
 tstress=.true.,
/
&SYSTEM
  ibrav = 0,
  A =    4.01724,
  nat = 2,
  ntyp = 2,
  ecutwfc=75,
  ecutrho=375,
  input_dft='pbe',
  occupations='smearing',
  smearing='mv',
  degauss=0.005d0,
/
&ELECTRONS
 conv_thr=1d-08,
 mixing_beta=0.7d0,
/
CELL_PARAMETERS {alat}
  0.500000000000000   0.500000000000000   0.000000000000000 
  0.500000000000000   0.000000000000000   0.500000000000000 
  0.000000000000000   0.500000000000000   0.500000000000000 
ATOMIC_SPECIES
  Li    6.96750  li_pbe_v1.4.uspp.F.UPF
   H    1.00750   H.pbe-rrkjus_psl.1.0.0.UPF
ATOMIC_POSITIONS {crystal}
Li   0.000000000000000   0.000000000000000   0.000000000000000 
 H   0.500000000000000   0.500000000000000   0.500000000000000 
K_POINTS {automatic}
 6 6 6 0 0 0
