#************************************************************************************
#*                   Generated by cif2cell 2.0.0 2023-11-14 20:30                   *
#*  T. Bjorkman, Comp. Phys. Commun. 182, 1183-1186 (2011). Please cite generously. *
#*                                                                                  *
#*                              Data obtained from COD                              *
#*                                   RbAlH4   ()                                    *
#*             Failed to get author information, No journal information             *
#************************************************************************************
&CONTROL
 calculation='scf',
 outdir='.',
 prefix='RbAlH4_experimental',
 pseudo_dir='../pseudopotentials',
 verbosity='low',
 tprnfor=.true.,
 tstress=.true.,
/
&SYSTEM
  ibrav = 0,
  A =    9.34242,
  nat = 24,
  ntyp = 3,
  ecutwfc=75,
  ecutrho=375,
  input_dft='pbe',
  occupations='smearing',
  smearing='mv',
  degauss=0.005d0,
/
CELL_PARAMETERS {alat}
  1.000000000000000   0.000000000000000   0.000000000000000 
  0.000000000000000   0.621971570491893   0.000000000000000 
  0.000000000000000   0.000000000000000   0.809420523570808 
ATOMIC_SPECIES
   H    1.00750   H.pbe-rrkjus_psl.1.0.0.UPF
  Al   26.98100  Al.pbe-n-kjpaw_psl.1.0.0.UPF
  Rb   85.46780  Rb_ONCV_PBE-1.0.oncvpsp.upf
ATOMIC_POSITIONS {crystal}
Rb   0.181301780000000   0.250000000000000   0.659676590000000 
Rb   0.318698220000000   0.750000000000000   0.159676590000000 
Rb   0.818698220000000   0.750000000000000   0.340323410000000 
Rb   0.681301780000000   0.250000000000000   0.840323410000000 
Al   0.061811350000000   0.250000000000000   0.186350940000000 
Al   0.438188650000000   0.750000000000000   0.686350940000000 
Al   0.938188650000000   0.750000000000000   0.813649060000000 
Al   0.561811350000000   0.250000000000000   0.313649060000000 
 H   0.080116110000000   0.023968830000000   0.311675970000000 
 H   0.419883890000000   0.523968830000000   0.811675970000000 
 H   0.419883890000000   0.976031170000000   0.811675970000000 
 H   0.919883890000000   0.523968830000000   0.688324030000000 
 H   0.919883890000000   0.976031170000000   0.688324030000000 
 H   0.580116110000000   0.476031170000000   0.188324030000000 
 H   0.580116110000000   0.023968830000000   0.188324030000000 
 H   0.080116110000000   0.476031170000000   0.311675970000000 
 H   0.097368470000000   0.750000000000000   0.899256270000000 
 H   0.402631530000000   0.250000000000000   0.399256270000000 
 H   0.902631530000000   0.250000000000000   0.100743730000000 
 H   0.597368470000000   0.750000000000000   0.600743730000000 
 H   0.188818320000000   0.250000000000000   0.040007900000000 
 H   0.311181680000000   0.750000000000000   0.540007900000000 
 H   0.811181680000000   0.750000000000000   0.959992100000000 
 H   0.688818320000000   0.250000000000000   0.459992100000000 
K_POINTS {automatic}
 4 6 5 0 0 0
