#************************************************************************************
#*                   Generated by cif2cell 2.0.0 2023-11-14 21:31                   *
#*  T. Bjorkman, Comp. Phys. Commun. 182, 1183-1186 (2011). Please cite generously. *
#*                                                                                  *
#*                              Data obtained from COD                              *
#*                                     RbH   ()                                     *
#*             Failed to get author information, No journal information             *
#************************************************************************************
&CONTROL
 calculation='scf',
 outdir='.',
 prefix='RbH_experimental',
 pseudo_dir='../pseudopotentials',
 verbosity='low',
 tprnfor=.true.,
 tstress=.true.,
/
&SYSTEM
  ibrav = 0,
  A =    6.00816,
  nat = 2,
  ntyp = 2,
  ecutwfc=75,
  ecutrho=375,
  input_dft='pbe',
  occupations='smearing',
  smearing='mv',
  degauss=0.005d0,
/
CELL_PARAMETERS {alat}
  0.500000000000000   0.500000000000000   0.000000000000000 
  0.500000000000000   0.000000000000000   0.500000000000000 
  0.000000000000000   0.500000000000000   0.500000000000000 
ATOMIC_SPECIES
   H    1.00750   H.pbe-rrkjus_psl.1.0.0.UPF
  Rb   85.46780  Rb_ONCV_PBE-1.0.oncvpsp.upf
ATOMIC_POSITIONS {crystal}
Rb   0.500000000000000   0.500000000000000   0.500000000000000 
 H   0.000000000000000   0.000000000000000   0.000000000000000 
K_POINTS {automatic}
 6 6 6 0 0 0
